c description: Random 4-CNF over 6 variables and 1 clauses
c generator: CNFgen (0.9.2)
c copyright: (C) 2012-2022 Massimo Lauria <massimo.lauria@uniroma1.it>
c url: https://massimolauria.net/cnfgen
c command line: cnfgen randkcnf 4 6 1
c
p cnf 6 1
1 -3 4 -5 0
